certificates/rado_a7_c95_N16.cnf
c Rad2 upper bound instance: x1 + 7*x2 - x3 = 95, interval [1,16]
p cnf 16 70
1 4 14 0
-1 -4 -14 0
1 11 15 0
-1 -11 -15 0
2 5 14 0
-2 -5 -14 0
2 12 15 0
-2 -12 -15 0
3 6 14 0
-3 -6 -14 0
3 13 15 0
-3 -13 -15 0
4 7 14 0
-4 -7 -14 0
4 14 15 0
-4 -14 -15 0
1 5 13 0
-1 -5 -13 0
5 8 14 0
-5 -8 -14 0
5 15 0
-5 -15 0
2 6 13 0
-2 -6 -13 0
6 9 14 0
-6 -9 -14 0
6 15 16 0
-6 -15 -16 0
3 7 13 0
-3 -7 -13 0
7 10 14 0
-7 -10 -14 0
4 8 13 0
-4 -8 -13 0
8 11 14 0
-8 -11 -14 0
5 9 13 0
-5 -9 -13 0
9 12 14 0
-9 -12 -14 0
6 10 13 0
-6 -10 -13 0
10 13 14 0
-10 -13 -14 0
7 11 13 0
-7 -11 -13 0
11 14 0
-11 -14 0
1 12 0
-1 -12 0
8 12 13 0
-8 -12 -13 0
12 14 15 0
-12 -14 -15 0
2 12 13 0
-2 -12 -13 0
9 13 0
-9 -13 0
13 14 16 0
-13 -14 -16 0
3 12 14 0
-3 -12 -14 0
4 12 15 0
-4 -12 -15 0
11 13 15 0
-11 -13 -15 0
5 12 16 0
-5 -12 -16 0
12 13 16 0
-12 -13 -16 0
