certificates/rado_a7_c95_N16.drat
-14 6 -16 0
-15 -16 0
-16 0
-14 15 0
15 0
-5 0
12 0
-1 0
-2 0
-14 0
-4 0
13 0
0
